(set-info :smt-lib-version 2.6)
(set-logic AUFBVFPDTNIRA)
(set-info :source |
Generated by: AdaCore
Generated on: 2020-03-06
Generator: SPARK
Application: Program verification for Ada
Target solver: CVC4
|)
(set-info :license "https://creativecommons.org/licenses/by/4.0/")
(set-info :category "industrial")
(set-info :status unknown)
;;; generated by SMT-LIB2 driver
;;; SMT-LIB2 driver: bit-vectors, common part
;;; SMT-LIB2: integer arithmetic
;;; SMT-LIB2: real arithmetic
(declare-sort string 0)

(declare-datatypes ((tuple0 0))
(((Tuple0))))
(declare-sort us_private 0)

(declare-fun private__bool_eq (us_private us_private) Bool)

(declare-const us_null_ext__ us_private)

(declare-sort us_type_of_heap 0)

(declare-datatypes ((us_type_of_heap__ref 0))
(((us_type_of_heap__refqtmk (us_type_of_heap__content us_type_of_heap)))))
(declare-sort us_image 0)

(declare-datatypes ((int__ref 0))
(((int__refqtmk (int__content Int)))))
(declare-datatypes ((bool__ref 0))
(((bool__refqtmk (bool__content Bool)))))
(declare-datatypes ((us_fixed__ref 0))
(((us_fixed__refqtmk (us_fixed__content Int)))))
(declare-datatypes ((real__ref 0))
(((real__refqtmk (real__content Real)))))
(declare-datatypes ((us_private__ref 0))
(((us_private__refqtmk (us_private__content us_private)))))
(define-fun int__ref___projection ((a int__ref)) Int (int__content a))

(define-fun us_fixed__ref___projection ((a us_fixed__ref)) Int (us_fixed__content
                                                               a))

(define-fun bool__ref___projection ((a bool__ref)) Bool (bool__content a))

(define-fun real__ref___projection ((a real__ref)) Real (real__content a))

(define-fun us_private__ref___projection ((a us_private__ref)) us_private 
  (us_private__content a))

(declare-fun nth ((_ BitVec 64) Int) Bool)

(declare-fun lsr ((_ BitVec 64) Int) (_ BitVec 64))

(declare-fun asr ((_ BitVec 64) Int) (_ BitVec 64))

(declare-fun lsl ((_ BitVec 64) Int) (_ BitVec 64))

(define-fun abs1 ((x Int)) Int (ite (<= 0 x) x (- x)))

;; Abs_le
  (assert
  (forall ((x Int) (y Int)) (= (<= (abs1 x) y) (and (<= (- y) x) (<= x y)))))

;; Abs_pos
  (assert (forall ((x Int)) (<= 0 (abs1 x))))

;; Div_unique
  (assert
  (forall ((x Int) (y Int) (q Int))
  (=> (< 0 y) (=> (and (<= (* q y) x) (< x (+ (* q y) y))) (= (div x y) q)))))

;; Div_bound
  (assert
  (forall ((x Int) (y Int))
  (=> (and (<= 0 x) (< 0 y)) (and (<= 0 (div x y)) (<= (div x y) x)))))

;; Div_inf
  (assert
  (forall ((x Int) (y Int)) (=> (and (<= 0 x) (< x y)) (= (div x y) 0))))

;; Div_inf_neg
  (assert
  (forall ((x Int) (y Int))
  (=> (and (< 0 x) (<= x y)) (= (div (- x) y) (- 1)))))

;; Mod_0
  (assert (forall ((y Int)) (=> (not (= y 0)) (= (mod 0 y) 0))))

;; Div_1_left
  (assert (forall ((y Int)) (=> (< 1 y) (= (div 1 y) 0))))

;; Div_minus1_left
  (assert (forall ((y Int)) (=> (< 1 y) (= (div (- 1) y) (- 1)))))

;; Mod_1_left
  (assert (forall ((y Int)) (=> (< 1 y) (= (mod 1 y) 1))))

;; Mod_minus1_left
  (assert
  (forall ((y Int))
  (! (=> (< 1 y) (= (mod (- 1) y) (- y 1))) :pattern ((mod (- 1) y)) )))

;; Div_mult
  (assert
  (forall ((x Int) (y Int) (z Int))
  (! (=> (< 0 x) (= (div (+ (* x y) z) x) (+ y (div z x)))) :pattern ((div (+ (* x y) z) x)) )))

;; Mod_mult
  (assert
  (forall ((x Int) (y Int) (z Int))
  (! (=> (< 0 x) (= (mod (+ (* x y) z) x) (mod z x))) :pattern ((mod (+ (* x y) z) x)) )))

(declare-fun rotate_right1 ((_ BitVec 64) Int) (_ BitVec 64))

(declare-fun rotate_left1 ((_ BitVec 64) Int) (_ BitVec 64))

(declare-fun pow2 (Int) Int)

(define-fun to_int1 ((x (_ BitVec 64))) Int (ite (bvsge x (_ bv0 64))
                                            (bv2nat x)
                                            (- (- 18446744073709551616 (bv2nat x)))))

(define-fun uint_in_range ((i Int)) Bool (and (<= 0 i)
                                         (<= i 18446744073709551615)))

;; lsr_bv_is_lsr
  (assert
  (forall ((x (_ BitVec 64)) (n (_ BitVec 64)))
  (= (bvlshr x n) (lsr x (bv2nat n)))))

;; asr_bv_is_asr
  (assert
  (forall ((x (_ BitVec 64)) (n (_ BitVec 64)))
  (= (bvashr x n) (asr x (bv2nat n)))))

;; lsl_bv_is_lsl
  (assert
  (forall ((x (_ BitVec 64)) (n (_ BitVec 64)))
  (= (bvshl x n) (lsl x (bv2nat n)))))

;; rotate_left_bv_is_rotate_left
  (assert
  (forall ((v (_ BitVec 64)) (n (_ BitVec 64)))
  (= (bvor (bvshl v (bvurem n (_ bv64 64))) (bvlshr v (bvsub (_ bv64 64) (bvurem n (_ bv64 64))))) 
  (rotate_left1 v (bv2nat n)))))

;; rotate_right_bv_is_rotate_right
  (assert
  (forall ((v (_ BitVec 64)) (n (_ BitVec 64)))
  (= (bvor (bvlshr v (bvurem n (_ bv64 64))) (bvshl v (bvsub (_ bv64 64) (bvurem n (_ bv64 64))))) 
  (rotate_right1 v (bv2nat n)))))

(declare-fun nth_bv ((_ BitVec 64) (_ BitVec 64)) Bool)

;; nth_bv_def
  (assert
  (forall ((x (_ BitVec 64)) (i (_ BitVec 64)))
  (= (= (nth_bv x i) true)
  (not (= (bvand (bvlshr x i) #x0000000000000001) #x0000000000000000)))))

;; Nth_bv_is_nth
  (assert
  (forall ((x (_ BitVec 64)) (i (_ BitVec 64)))
  (= (nth x (bv2nat i)) (nth_bv x i))))

;; Nth_bv_is_nth2
  (assert
  (forall ((x (_ BitVec 64)) (i Int))
  (=> (and (<= 0 i) (< i 18446744073709551616))
  (= (nth_bv x ((_ int2bv 64) i)) (nth x i)))))

(declare-fun eq_sub_bv ((_ BitVec 64) (_ BitVec 64) (_ BitVec 64)
  (_ BitVec 64)) Bool)

;; eq_sub_bv_def
  (assert
  (forall ((a (_ BitVec 64)) (b (_ BitVec 64)) (i (_ BitVec 64))
  (n (_ BitVec 64)))
  (let ((mask (bvshl (bvsub (bvshl #x0000000000000001 n) #x0000000000000001) i)))
  (= (eq_sub_bv a b i n) (= (bvand b mask) (bvand a mask))))))

(define-fun eq_sub ((a (_ BitVec 64)) (b (_ BitVec 64)) (i Int)
  (n Int)) Bool (forall ((j Int))
                (=> (and (<= i j) (< j (+ i n))) (= (nth a j) (nth b j)))))

;; eq_sub_equiv
  (assert
  (forall ((a (_ BitVec 64)) (b (_ BitVec 64)) (i (_ BitVec 64))
  (n (_ BitVec 64)))
  (= (eq_sub a b (bv2nat i) (bv2nat n)) (eq_sub_bv a b i n))))

(declare-datatypes ((t__ref 0))
(((t__refqtmk (t__content (_ BitVec 64))))))
(declare-fun power ((_ BitVec 64) Int) (_ BitVec 64))

(define-fun bv_min ((x (_ BitVec 64))
  (y (_ BitVec 64))) (_ BitVec 64) (ite (bvule x y) x y))

(define-fun bv_max ((x (_ BitVec 64))
  (y (_ BitVec 64))) (_ BitVec 64) (ite (bvule x y) y x))

(define-fun min ((x Int) (y Int)) Int (ite (<= x y) x y))

(define-fun max ((x Int) (y Int)) Int (ite (<= x y) y x))

;; Min_r
  (assert (forall ((x Int) (y Int)) (=> (<= y x) (= (min x y) y))))

;; Max_l
  (assert (forall ((x Int) (y Int)) (=> (<= y x) (= (max x y) x))))

;; Min_comm
  (assert (forall ((x Int) (y Int)) (= (min x y) (min y x))))

;; Max_comm
  (assert (forall ((x Int) (y Int)) (= (max x y) (max y x))))

;; Min_assoc
  (assert
  (forall ((x Int) (y Int) (z Int)) (= (min (min x y) z) (min x (min y z)))))

;; Max_assoc
  (assert
  (forall ((x Int) (y Int) (z Int)) (= (max (max x y) z) (max x (max y z)))))

(declare-fun div1 (Int Int) Int)

(declare-fun mod1 (Int Int) Int)

;; Div_mod
  (assert
  (forall ((x Int) (y Int))
  (=> (not (= y 0)) (= x (+ (* y (div1 x y)) (mod1 x y))))))

;; Div_bound
  (assert
  (forall ((x Int) (y Int))
  (=> (and (<= 0 x) (< 0 y)) (and (<= 0 (div1 x y)) (<= (div1 x y) x)))))

;; Mod_bound
  (assert
  (forall ((x Int) (y Int))
  (=> (not (= y 0))
  (and (< (- (abs1 y)) (mod1 x y)) (< (mod1 x y) (abs1 y))))))

;; Div_sign_pos
  (assert
  (forall ((x Int) (y Int)) (=> (and (<= 0 x) (< 0 y)) (<= 0 (div1 x y)))))

;; Div_sign_neg
  (assert
  (forall ((x Int) (y Int)) (=> (and (<= x 0) (< 0 y)) (<= (div1 x y) 0))))

;; Mod_sign_pos
  (assert
  (forall ((x Int) (y Int))
  (=> (and (<= 0 x) (not (= y 0))) (<= 0 (mod1 x y)))))

;; Mod_sign_neg
  (assert
  (forall ((x Int) (y Int))
  (=> (and (<= x 0) (not (= y 0))) (<= (mod1 x y) 0))))

;; Rounds_toward_zero
  (assert
  (forall ((x Int) (y Int))
  (=> (not (= y 0)) (<= (abs1 (* (div1 x y) y)) (abs1 x)))))

;; Div_1
  (assert (forall ((x Int)) (= (div1 x 1) x)))

;; Mod_1
  (assert (forall ((x Int)) (= (mod1 x 1) 0)))

;; Div_inf
  (assert
  (forall ((x Int) (y Int)) (=> (and (<= 0 x) (< x y)) (= (div1 x y) 0))))

;; Mod_inf
  (assert
  (forall ((x Int) (y Int)) (=> (and (<= 0 x) (< x y)) (= (mod1 x y) x))))

;; Div_mult
  (assert
  (forall ((x Int) (y Int) (z Int))
  (! (=> (and (< 0 x) (and (<= 0 y) (<= 0 z)))
     (= (div1 (+ (* x y) z) x) (+ y (div1 z x)))) :pattern ((div1
                                                            (+ (* x y) z) x)) )))

;; Mod_mult
  (assert
  (forall ((x Int) (y Int) (z Int))
  (! (=> (and (< 0 x) (and (<= 0 y) (<= 0 z)))
     (= (mod1 (+ (* x y) z) x) (mod1 z x))) :pattern ((mod1 (+ (* x y) z) x)) )))

(define-fun mod2 ((x Int)
  (y Int)) Int (ite (< 0 y) (mod x y) (+ (mod x y) y)))

(define-fun pos_div_relation ((res Int) (num Int)
  (den Int)) Bool (let ((exact (div1 num den)))
                  (ite (= num 0) (= res 0)
                  (ite (= num (* exact den)) (= res exact)
                  (and (<= exact res) (<= res (+ exact 1)))))))

(declare-fun fxp_div_int (Int Int) Int)

;; fxp_div_int_def
  (assert
  (forall ((x Int))
  (forall ((y Int))
  (! (ite (= x 0) (= (fxp_div_int x y) 0)
     (ite (and (< 0 x) (< 0 y)) (pos_div_relation (fxp_div_int x y) x y)
     (ite (and (< x 0) (< y 0)) (pos_div_relation (fxp_div_int x y) (- x)
     (- y))
     (ite (and (< x 0) (< 0 y)) (pos_div_relation (- (fxp_div_int x y)) (- x)
     y)
     (=> (and (< 0 x) (< y 0)) (pos_div_relation (- (fxp_div_int x y)) x
     (- y))))))) :pattern ((fxp_div_int x y)) ))))

(declare-fun to_int2 (Int) Int)

;; to_int_def
  (assert
  (forall ((x Int))
  (! (ite (= x 0) (= (to_int2 x) 0)
     (ite (< 0 x) (pos_div_relation (to_int2 x) (* x 1) 1000000000)
     (pos_div_relation (- (to_int2 x)) (* (- x) 1) 1000000000))) :pattern (
  (to_int2 x)) )))

(declare-fun of_int (Int) Int)

;; of_int_def
  (assert
  (forall ((x Int))
  (! (ite (= x 0) (= (of_int x) 0)
     (ite (< 0 x) (pos_div_relation (of_int x) (* x 1000000000) 1)
     (pos_div_relation (- (of_int x)) (* (- x) 1000000000) 1))) :pattern (
  (of_int x)) )))

(declare-const a (_ BitVec 64))

(declare-const attr__ATTRIBUTE_ADDRESS Int)

(declare-const b (_ BitVec 64))

(declare-const attr__ATTRIBUTE_ADDRESS1 Int)

(declare-const attr__ATTRIBUTE_ADDRESS2 Int)

(declare-const attr__ATTRIBUTE_ADDRESS3 Int)

(declare-const attr__ATTRIBUTE_ADDRESS4 Int)

(declare-const attr__ATTRIBUTE_ADDRESS5 Int)

(declare-const attr__ATTRIBUTE_ADDRESS6 Int)

(declare-sort us_main_type 0)

(declare-fun us_main_eq (us_main_type us_main_type) Bool)

(declare-sort us_rep 0)

(declare-fun bool_eq (us_rep us_rep) Bool)

(declare-const value__size Int)

(declare-const object__size Int)

(declare-const alignment Int)

;; value__size_axiom
  (assert (<= 0 value__size))

;; object__size_axiom
  (assert (<= 0 object__size))

;; alignment_axiom
  (assert (<= 0 alignment))

(declare-fun user_eq (us_rep us_rep) Bool)

(declare-const dummy us_rep)

(declare-datatypes ((time__ref 0))
(((time__refqtmk (time__content us_rep)))))
(define-fun time__ref_time__content__projection ((a1 time__ref)) us_rep 
  (time__content a1))

(declare-const now us_rep)

(declare-const attr__ATTRIBUTE_ADDRESS7 Int)

(declare-sort year_number 0)

(declare-fun year_numberqtint (year_number) Int)

;; year_number'axiom
  (assert
  (forall ((i year_number))
  (and (<= 1901 (year_numberqtint i)) (<= (year_numberqtint i) 2399))))

(define-fun in_range ((x Int)) Bool (and (<= 1901 x) (<= x 2399)))

(declare-fun attr__ATTRIBUTE_IMAGE (Int) us_image)

(declare-fun attr__ATTRIBUTE_VALUE__pre_check (us_image) Bool)

(declare-fun attr__ATTRIBUTE_VALUE (us_image) Int)

(declare-fun user_eq1 (year_number year_number) Bool)

(declare-const dummy1 year_number)

(declare-datatypes ((year_number__ref 0))
(((year_number__refqtmk (year_number__content year_number)))))
(define-fun year_number__ref_year_number__content__projection ((a1 year_number__ref)) year_number 
  (year_number__content a1))

(define-fun dynamic_invariant ((temp___expr_165 Int)
  (temp___is_init_161 Bool) (temp___skip_constant_162 Bool)
  (temp___do_toplevel_163 Bool)
  (temp___do_typ_inv_164 Bool)) Bool (=>
                                     (or (= temp___is_init_161 true)
                                     (<= 1901 2399)) (in_range
                                     temp___expr_165)))

(declare-sort month_number 0)

(declare-fun month_numberqtint (month_number) Int)

;; month_number'axiom
  (assert
  (forall ((i month_number))
  (and (<= 1 (month_numberqtint i)) (<= (month_numberqtint i) 12))))

(define-fun in_range1 ((x Int)) Bool (and (<= 1 x) (<= x 12)))

(declare-fun attr__ATTRIBUTE_IMAGE1 (Int) us_image)

(declare-fun attr__ATTRIBUTE_VALUE__pre_check1 (us_image) Bool)

(declare-fun attr__ATTRIBUTE_VALUE1 (us_image) Int)

(declare-fun user_eq2 (month_number month_number) Bool)

(declare-const dummy2 month_number)

(declare-datatypes ((month_number__ref 0))
(((month_number__refqtmk (month_number__content month_number)))))
(define-fun month_number__ref_month_number__content__projection ((a1 month_number__ref)) month_number 
  (month_number__content a1))

(define-fun dynamic_invariant1 ((temp___expr_172 Int)
  (temp___is_init_168 Bool) (temp___skip_constant_169 Bool)
  (temp___do_toplevel_170 Bool)
  (temp___do_typ_inv_171 Bool)) Bool (=>
                                     (or (= temp___is_init_168 true)
                                     (<= 1 12)) (in_range1 temp___expr_172)))

(declare-sort day_number 0)

(declare-fun day_numberqtint (day_number) Int)

;; day_number'axiom
  (assert
  (forall ((i day_number))
  (and (<= 1 (day_numberqtint i)) (<= (day_numberqtint i) 31))))

(define-fun in_range2 ((x Int)) Bool (and (<= 1 x) (<= x 31)))

(declare-fun attr__ATTRIBUTE_IMAGE2 (Int) us_image)

(declare-fun attr__ATTRIBUTE_VALUE__pre_check2 (us_image) Bool)

(declare-fun attr__ATTRIBUTE_VALUE2 (us_image) Int)

(declare-fun user_eq3 (day_number day_number) Bool)

(declare-const dummy3 day_number)

(declare-datatypes ((day_number__ref 0))
(((day_number__refqtmk (day_number__content day_number)))))
(define-fun day_number__ref_day_number__content__projection ((a1 day_number__ref)) day_number 
  (day_number__content a1))

(define-fun dynamic_invariant2 ((temp___expr_179 Int)
  (temp___is_init_175 Bool) (temp___skip_constant_176 Bool)
  (temp___do_toplevel_177 Bool)
  (temp___do_typ_inv_178 Bool)) Bool (=>
                                     (or (= temp___is_init_175 true)
                                     (<= 1 31)) (in_range2 temp___expr_179)))

(declare-sort day_duration 0)

(define-fun in_range3 ((x Int)) Bool (and (<= 0 x) (<= x 86400000000000)))

(declare-const dummy4 day_duration)

(declare-fun attr__ATTRIBUTE_IMAGE3 (Int) us_image)

(declare-fun attr__ATTRIBUTE_VALUE__pre_check3 (us_image) Bool)

(declare-fun attr__ATTRIBUTE_VALUE3 (us_image) Int)

(declare-fun user_eq4 (day_duration day_duration) Bool)

(declare-datatypes ((day_duration__ref 0))
(((day_duration__refqtmk (day_duration__content day_duration)))))
(define-fun day_duration__ref_day_duration__content__projection ((a1 day_duration__ref)) day_duration 
  (day_duration__content a1))

(define-fun dynamic_invariant3 ((temp___expr_186 Int)
  (temp___is_init_182 Bool) (temp___skip_constant_183 Bool)
  (temp___do_toplevel_184 Bool)
  (temp___do_typ_inv_185 Bool)) Bool (=>
                                     (or (= temp___is_init_182 true)
                                     (<= 0 86400000000000)) (in_range3
                                     temp___expr_186)))

(declare-sort serial_number_type 0)

(declare-const attr__ATTRIBUTE_MODULUS (_ BitVec 64))

(declare-fun attr__ATTRIBUTE_IMAGE4 ((_ BitVec 64)) us_image)

(declare-fun attr__ATTRIBUTE_VALUE__pre_check4 (us_image) Bool)

(declare-fun attr__ATTRIBUTE_VALUE4 (us_image) (_ BitVec 64))

(declare-fun user_eq5 (serial_number_type serial_number_type) Bool)

(declare-const dummy5 serial_number_type)

(declare-datatypes ((serial_number_type__ref 0))
(((serial_number_type__refqtmk
  (serial_number_type__content serial_number_type)))))
(define-fun serial_number_type__ref_serial_number_type__content__projection ((a1 serial_number_type__ref)) serial_number_type 
  (serial_number_type__content a1))

(define-fun dynamic_invariant4 ((temp___expr_158 (_ BitVec 64))
  (temp___is_init_154 Bool) (temp___skip_constant_155 Bool)
  (temp___do_toplevel_156 Bool) (temp___do_typ_inv_157 Bool)) Bool true)

;; a__def_axiom
  (assert (= a #x27BB2EE687B0B0FD))

;; b__def_axiom
  (assert (= b #x00000000B504F32D))

(assert
;; defqtvc
 ;; File "serial_generator.ads", line 16, characters 0-0
  (not
  (forall ((current (_ BitVec 64)) (year Int) (month Int) (day Int)
  (seconds Int) (serial_generator__B_1__now__assume us_rep) (year1 Int)
  (month1 Int) (day1 Int) (seconds1 Int))
  (=> (dynamic_invariant4 a true false true true)
  (=> (dynamic_invariant4 b true false true true)
  (=> (dynamic_invariant4 current false false true true)
  (=> (dynamic_invariant year false false true true)
  (=> (dynamic_invariant1 month false false true true)
  (=> (dynamic_invariant2 day false false true true)
  (=> (dynamic_invariant3 seconds false false true true)
  (=> (= serial_generator__B_1__now__assume now)
  (=> (dynamic_invariant year1 true true true true)
  (=> (dynamic_invariant1 month1 true true true true)
  (=> (dynamic_invariant2 day1 true true true true)
  (=> (dynamic_invariant3 seconds1 true true true true) (uint_in_range
  (to_int2 seconds1)))))))))))))))))
(check-sat)
(exit)
